(set-logic SLIA)
(constraint (= (f "Mining US") "Mining"))
(constraint (= (f "Soybean Farming CAN") "Soybean Farming"))
(constraint (= (f "Soybean Farming") "Soybean Farming"))
(constraint (= (f "Oil Extraction US") "Oil Extraction"))
(constraint (= (f "Fishing") "Fishing"))
(check-synth)
(synth-fun f ((_arg_0 String)) String ((Start String (ntString)) (ntString String ((Str A) (str.++ ntString A))) (A String ((Str ConstString) (SubStr X P P))) (P Int ((Int ntInt) (Pos X Pattern ntInt Direction))) (Pattern String ((Str ConstString) "ProperCase" "CAPS" "lowercase" "Digits" "Alphabets" "Alphanumeric" "WhiteSpace" "ProperCaseWSpaces" "CAPSWSpaces" "lowercaseSpaces" "AlphabetsWSpaces")) (X String (_arg_0)) (ConstString String (_arg_0 "" " " "US" "CAN")) (Direction Int (0 1)) (ntInt Int (-5 -4 -3 -2 -1 0 1 2 3 4 5))))
(define-fun ResFun ((_arg_0 String)) String (Str (SubStr _arg_0 (Int 0) (Pos _arg_0 "ProperCaseWSpaces" 0 1))))
